c instance by G2
c solution = 110101011
c Known solution cost is 407 
p cnf 9 30
w 5 62 86 4 33 82 63 69 3
-6 3 4 0
2 -6 -1 0
-5 7 -3 0
-5 3 4 0
-1 -8 2 0
-5 9 7 0
1 5 -3 0
7 5 -3 0
-6 -3 1 0
-2 3 -5 0
-9 3 -5 0
4 -6 -8 0
-5 3 -1 0
-3 -4 8 0
-8 -7 -6 0
-9 8 -5 0
7 9 3 0
6 4 -5 0
7 1 -5 0
9 6 3 0
-2 6 -9 0
3 -8 4 0
1 7 -6 0
-1 -9 -5 0
9 6 4 0
-9 6 8 0
-7 3 -2 0
8 -2 5 0
8 -9 -6 0
4 -7 9 0
